NAME 
ROWS
 N  OBJ
 L  R0      
 L  R1      
 L  R2      
 L  R3      
 L  R4      
 L  R5      
 L  R6      
 L  R7      
 L  R8      
 L  R9      
COLUMNS
    MARKER    'MARKER'                 'INTORG'
    x[0]      OBJ       10
    x[0]      R0        9
    x[0]      R1        -7
    x[0]      R3        -3
    x[0]      R4        -10
    x[0]      R6        -1
    x[0]      R7        1
    x[0]      R8        1
    x[0]      R9        -1
    x[1]      OBJ       4
    x[1]      R0        -5
    x[1]      R1        7
    x[1]      R2        -6
    x[1]      R3        -3
    x[1]      R4        -8
    x[1]      R7        -1
    x[2]      OBJ       7
    x[2]      R0        -4
    x[2]      R1        -4
    x[2]      R2        4
    x[2]      R3        1
    x[2]      R4        10
    x[2]      R6        -1
    x[2]      R9        -1
    x[3]      R0        5
    x[3]      R1        -1
    x[3]      R2        4
    x[3]      R3        2
    x[3]      R4        -7
    x[4]      OBJ       -2
    x[4]      R0        -3
    x[4]      R2        -7
    x[4]      R3        8
    x[4]      R4        -4
    x[4]      R5        -1
    x[4]      R9        1
    x[5]      OBJ       6
    x[5]      R0        -5
    x[5]      R1        3
    x[5]      R2        6
    x[5]      R3        -4
    x[5]      R4        2
    x[5]      R6        1
    x[5]      R8        1
    x[5]      R9        1
    x[6]      OBJ       9
    x[6]      R0        5
    x[6]      R1        -4
    x[6]      R2        4
    x[6]      R3        6
    x[6]      R4        -3
    x[6]      R7        -1
    x[6]      R8        1
    x[6]      R9        1
    x[7]      OBJ       2
    x[7]      R0        7
    x[7]      R1        -4
    x[7]      R2        5
    x[7]      R3        -5
    x[7]      R4        -4
    x[7]      R5        1
    x[7]      R6        -1
    x[7]      R7        -1
    x[7]      R9        1
    x[8]      OBJ       3
    x[8]      R0        -10
    x[8]      R1        6
    x[8]      R2        -3
    x[8]      R3        -8
    x[8]      R4        9
    x[8]      R6        1
    x[8]      R8        -1
    x[8]      R9        1
    x[9]      OBJ       6
    x[9]      R1        6
    x[9]      R2        4
    x[9]      R3        -9
    x[9]      R4        5
    x[9]      R6        -1
    x[9]      R7        -1
    x[9]      R8        1
    x[9]      R9        1
    y[0]      OBJ       -6
    y[0]      R1        8
    y[0]      R2        3
    y[0]      R3        1
    y[0]      R4        6
    y[0]      R5        85
    y[0]      R6        66
    y[0]      R7        -4
    y[0]      R8        -48
    y[0]      R9        40
    y[1]      OBJ       -2
    y[1]      R0        -8
    y[1]      R1        2
    y[1]      R2        5
    y[1]      R3        -5
    y[1]      R4        -4
    y[1]      R5        -65
    y[1]      R6        -37
    y[1]      R7        42
    y[1]      R8        2
    y[1]      R9        45
    y[2]      OBJ       -4
    y[2]      R0        -8
    y[2]      R1        -1
    y[2]      R2        10
    y[2]      R3        -1
    y[2]      R4        3
    y[2]      R5        69
    y[2]      R6        -54
    y[2]      R8        21
    y[2]      R9        61
    y[3]      OBJ       -8
    y[3]      R0        7
    y[3]      R1        -10
    y[3]      R2        8
    y[3]      R3        10
    y[3]      R4        -6
    y[3]      R5        -19
    y[3]      R6        4
    y[3]      R7        -13
    y[3]      R8        -50
    y[3]      R9        -90
    y[4]      OBJ       -6
    y[4]      R0        -6
    y[4]      R1        6
    y[4]      R2        4
    y[4]      R3        1
    y[4]      R4        -8
    y[4]      R5        -98
    y[4]      R6        12
    y[4]      R7        63
    y[4]      R8        -54
    y[4]      R9        -72
    y[5]      OBJ       -7
    y[5]      R0        -10
    y[5]      R1        9
    y[5]      R2        2
    y[5]      R3        -9
    y[5]      R5        -7
    y[5]      R6        1
    y[5]      R7        91
    y[5]      R8        -93
    y[5]      R9        33
    y[6]      OBJ       -8
    y[6]      R0        10
    y[6]      R1        -1
    y[6]      R2        -5
    y[6]      R3        8
    y[6]      R4        -1
    y[6]      R5        64
    y[6]      R6        -98
    y[6]      R7        23
    y[6]      R8        -84
    y[6]      R9        -19
    y[7]      OBJ       -10
    y[7]      R0        4
    y[7]      R1        6
    y[7]      R2        2
    y[7]      R3        -10
    y[7]      R4        -1
    y[7]      R5        9
    y[7]      R6        -2
    y[7]      R7        -68
    y[7]      R8        57
    y[7]      R9        33
    y[8]      OBJ       -10
    y[8]      R0        7
    y[8]      R1        9
    y[8]      R2        2
    y[8]      R3        10
    y[8]      R4        3
    y[8]      R5        -54
    y[8]      R6        -72
    y[8]      R7        10
    y[8]      R8        39
    y[8]      R9        21
    y[9]      OBJ       -6
    y[9]      R0        -3
    y[9]      R1        5
    y[9]      R2        2
    y[9]      R3        -3
    y[9]      R4        10
    y[9]      R5        -20
    y[9]      R6        86
    y[9]      R7        -9
    y[9]      R8        89
    y[9]      R9        -58
    MARKER    'MARKER'                 'INTEND'
RHS
    RHS1      R0        -2
    RHS1      R1        8.75
    RHS1      R2        11
    RHS1      R3        -3.25
    RHS1      R4        -2
    RHS1      R5        -9
    RHS1      R6        -24
    RHS1      R7        33
    RHS1      R8        -30
BOUNDS
 BV BND1      x[0]    
 BV BND1      x[1]    
 BV BND1      x[2]    
 BV BND1      x[3]    
 BV BND1      x[4]    
 BV BND1      x[5]    
 BV BND1      x[6]    
 BV BND1      x[7]    
 BV BND1      x[8]    
 BV BND1      x[9]    
 BV BND1      y[0]    
 BV BND1      y[1]    
 BV BND1      y[2]    
 BV BND1      y[3]    
 BV BND1      y[4]    
 BV BND1      y[5]    
 BV BND1      y[6]    
 BV BND1      y[7]    
 BV BND1      y[8]    
 BV BND1      y[9]    
ENDATA
